c description: Random 3-CNF over 20 variables and 200 clauses
c generator: CNFgen (0.9.2)
c copyright: (C) 2012-2022 Massimo Lauria <massimo.lauria@uniroma1.it>
c url: https://massimolauria.net/cnfgen
c command line: cnfgen -of dimacs -o 3-sat-1.cnf randkcnf 3 20 200
c
p cnf 20 200
-5 -7 14 0
13 -15 16 0
4 10 -20 0
-5 9 -17 0
-10 12 13 0
3 -14 -17 0
5 -11 -20 0
-1 5 10 0
8 14 -17 0
-2 13 19 0
3 -17 19 0
-1 5 -6 0
2 10 16 0
2 -4 -8 0
-5 -13 -16 0
-1 2 -13 0
-2 -9 15 0
1 -6 16 0
2 3 12 0
-6 -16 19 0
-1 7 -10 0
10 16 -17 0
7 8 -16 0
-8 16 -17 0
4 6 -14 0
-1 -11 18 0
-2 -17 -18 0
6 12 -15 0
-9 -13 -19 0
-1 -4 14 0
2 17 -20 0
11 -12 -18 0
2 6 10 0
1 4 -9 0
-7 -17 -20 0
1 15 17 0
5 6 8 0
-7 8 -16 0
7 -17 -18 0
-13 -18 -19 0
6 -7 -9 0
-4 9 16 0
4 11 -19 0
-6 -11 -20 0
-9 -12 -19 0
4 7 19 0
-6 -7 17 0
1 -7 12 0
-6 8 -18 0
-6 -15 -16 0
3 -4 7 0
1 -12 -17 0
-1 4 10 0
9 12 -15 0
-10 -17 -20 0
3 -5 -9 0
-6 -14 19 0
-3 9 13 0
9 17 19 0
-7 -11 -12 0
8 -13 -19 0
2 14 -20 0
6 12 13 0
-7 -16 -18 0
-1 -3 -6 0
-1 5 -13 0
6 16 -17 0
-2 14 17 0
4 17 -20 0
-1 10 19 0
1 -11 19 0
4 -8 -19 0
2 -15 18 0
4 -5 -14 0
1 -5 -7 0
9 11 -14 0
-5 13 16 0
9 10 -19 0
9 12 19 0
-6 -7 10 0
2 -5 6 0
11 15 -19 0
5 15 16 0
-11 -12 -17 0
-2 -5 14 0
3 -14 -16 0
1 3 15 0
-2 9 -19 0
-4 8 15 0
3 16 -18 0
-4 -7 12 0
1 -7 -12 0
-8 -14 20 0
-1 -2 11 0
3 8 -14 0
-3 -8 -11 0
-2 -6 20 0
-2 -3 -5 0
-5 8 17 0
-5 -6 -15 0
1 -4 9 0
5 -7 -11 0
8 9 -15 0
6 14 18 0
-3 -9 -13 0
-8 -12 19 0
8 10 -16 0
4 5 -16 0
11 16 20 0
1 12 13 0
-1 -3 -9 0
7 -10 18 0
7 -18 -20 0
18 -19 -20 0
8 9 -19 0
5 -15 -17 0
-4 9 12 0
-12 14 20 0
9 11 -13 0
3 -16 -19 0
-5 -6 19 0
-9 14 -17 0
-3 4 11 0
13 16 18 0
1 -3 -4 0
-2 -4 6 0
-4 -8 10 0
1 11 17 0
-5 -13 17 0
6 -17 -20 0
-11 -14 19 0
5 -6 15 0
4 -14 -15 0
-5 -10 15 0
5 -13 -17 0
-8 12 19 0
-5 -17 -18 0
-1 -19 20 0
-5 -16 -20 0
2 -7 14 0
-1 2 8 0
3 -7 16 0
-10 15 -17 0
1 -5 11 0
-2 -9 -19 0
4 7 -8 0
4 -5 -8 0
-5 -7 20 0
-7 -14 17 0
3 -10 -16 0
1 -2 -16 0
-4 13 15 0
-3 13 19 0
-4 -7 -14 0
-1 6 18 0
6 -9 -16 0
7 10 -11 0
4 -18 -19 0
-5 -10 14 0
10 -11 14 0
9 -10 -19 0
10 -11 -13 0
6 -16 19 0
-11 -13 14 0
-2 -11 -18 0
2 -4 6 0
-9 14 -18 0
7 9 -20 0
14 -17 -20 0
-4 -7 15 0
-7 8 17 0
4 -8 18 0
6 -11 14 0
-2 12 17 0
6 9 -12 0
6 -8 -16 0
-4 8 11 0
1 7 -17 0
1 -5 -19 0
-9 10 -18 0
-3 16 -19 0
10 15 -17 0
8 -10 -14 0
-2 -6 -11 0
-5 -9 15 0
5 7 -19 0
-8 -10 -18 0
9 10 13 0
3 -16 17 0
5 6 10 0
1 -12 -18 0
-6 10 -17 0
3 7 -19 0
6 -14 15 0
-3 11 15 0
-3 -10 -11 0
1 -4 8 0
16 17 -19 0
-5 -14 18 0
1 -4 -10 0
